nNurses = 89;
nHours = 29;
minHours = 8;
maxHours = 12;
maxConsec = 11;
maxPresence = 9;
demand = [33, 29, 31, 32, 33, 34, 30, 25, 29, 31, 29, 34, 29, 25, 21, 20, 17, 20, 24, 29, 24, 19, 15, 17, 12, 16, 18, 17, 22];
